NAME : block_07.167989.tour
COMMENT : Length = 167989
COMMENT : Found by LKH-3 [Keld Helsgaun] Wed Apr 22 15:39:20 2026
TYPE : TOUR
DIMENSION : 42
TOUR_SECTION
5
6
7
15
14
13
12
22
21
20
19
18
26
25
2
42
1
30
35
34
33
37
41
38
39
40
36
31
32
27
28
29
23
24
16
17
8
9
10
11
3
4
-1
EOF
